1094656
15,81,57,60,66,45,27,10,22,97,53,70,33,89,58,18,23,42,51,64,3,0,69,73,31,59,30,92,61,95,29,9,55,17,40,76,20,19,8,32,56,46,94,72,38,13,80,85,44,26,1,63,4,2,84,88,7,52,90,43,35,86,16,11,25,93,39,28,78,50,77,24,21,83,91,6,65,47,36,79,67,71,54,5,74,68,48,62,12,98,37,75,87,49,96,41,34,82,14,15